%%% static parameters %%%
timespan = 1;
initial_fruit_bushes = [40];
initial_foragers = [40];
ticks_to_flee = [100];
bush_growth_chance = [10];
rate_of_mutation = [5.0];
%%% dynamic parameters %%%
mean_strength_th = 0.9287539316233479;
mean_strength_w = 16;
mean_speed_th = 0.21960843774883387;
mean_speed_w = 76;
mean_intelligence_th = 0.4031257861651507;
mean_intelligence_w = 94;
murder_rate_th = 0.3703884616437285;
murder_rate_w = 14;
age_death_rate_th = 0.9974976022892392;
age_death_rate_w = 23;
starvation_rate_th = 0.7722619959915956;
starvation_rate_w = 79;
mean_reactive_aggression_th = 0.9205835025305438;
mean_reactive_aggression_w = 94;
mean_proactive_aggression_th = 0.99001109422378;
mean_proactive_aggression_w = 23;
